32 32
27
3 3 0 12
4 3 0 6
5 3 0 0
6 3 3 12
7 3 4 29
8 3 0 3
9 3 11 29
10 3 0 9
3 11 7 18
12 3 20 29
13 3 19 6
3 14 4 15
15 3 4 6
18 3 14 22
22 3 10 9
23 3 9 12
24 3 8 3
25 3 7 15
27 3 5 0
4 3 0 15
4 4 0 18
5 4 27 18
6 4 21 18
7 4 14 18
4 10 0 22
4 11 10 18
18 4 14 25
